(set-option :produce-models true)
(set-logic all)
(declare-fun str   () string)
(declare-fun seq8  () (seq (_ bitvec  8)))
(declare-fun seq16 () (seq (_ bitvec 16)))
(assert (= 1 (str.len str)))
(assert (= 1 (seq.len seq8)))
(assert (= 1 (seq.len seq16)))
(check-sat)